c description: Random 5-CNF over 15 variables and 15 clauses
c generator: CNFgen (0.9.0)
c copyright: (C) 2012-2020 Massimo Lauria <massimo.lauria@uniroma1.it>
c url: https://massimolauria.net/cnfgen
c
p cnf 15 15
1 4 -10 -11 -12 0
-1 2 6 8 15 0
1 -6 -12 -13 15 0
3 5 -8 -11 -13 0
-4 -5 -6 8 -12 0
5 8 -9 11 13 0
-6 -7 8 -10 -15 0
5 8 -9 -12 -15 0
-2 4 -6 7 -9 0
2 4 -6 -8 -12 0
-3 -4 -8 12 14 0
-3 5 7 -9 -15 0
3 -8 -9 13 -14 0
1 -3 -6 -10 -15 0
2 -4 7 -10 -11 0